(set-logic QF_LRA)
(declare-fun T1 () Real )
(declare-fun T2 () Real )
(declare-fun T3 () Real )
(declare-fun T4 () Real )
(declare-fun T5 () Real )
(declare-fun T6 () Real )
(declare-fun Z () Real )
(assert ( and 
(or ( <= ( + T1 11 ) T2 ) ( <= ( + T2 52 ) T1 ) )
(or ( <= ( + T1 83 )  ( + T2 52 ) ) ( <= ( + T2 108 )( + T1 11 ) ) )
(or ( <= ( + T1 107 )  ( + T2 108 ) ) ( <= ( + T2 128 )( + T1 83 ) ) )
(or ( <= ( + T1 123 )  ( + T2 128 ) ) ( <= ( + T2 178 )( + T1 107 ) ) )
(or ( <= ( + T1 11 ) T3 ) ( <= ( + T3 49 ) T1 ) )
(or ( <= ( + T1 83 )  ( + T3 49 ) ) ( <= ( + T3 144 )( + T1 11 ) ) )
(or ( <= ( + T1 107 )  ( + T3 144 ) ) ( <= ( + T3 158 )( + T1 83 ) ) )
(or ( <= ( + T1 123 )  ( + T3 158 ) ) ( <= ( + T3 180 )( + T1 107 ) ) )
(or ( <= ( + T1 11 ) T4 ) ( <= ( + T4 76 ) T1 ) )
(or ( <= ( + T1 83 )  ( + T4 76 ) ) ( <= ( + T4 118 )( + T1 11 ) ) )
(or ( <= ( + T1 107 )  ( + T4 118 ) ) ( <= ( + T4 204 )( + T1 83 ) ) )
(or ( <= ( + T1 123 )  ( + T4 204 ) ) ( <= ( + T4 258 )( + T1 107 ) ) )
(or ( <= ( + T1 11 ) T5 ) ( <= ( + T5 71 ) T1 ) )
(or ( <= ( + T1 83 )  ( + T5 71 ) ) ( <= ( + T5 118 )( + T1 11 ) ) )
(or ( <= ( + T1 107 )  ( + T5 118 ) ) ( <= ( + T5 126 )( + T1 83 ) ) )
(or ( <= ( + T1 123 )  ( + T5 126 ) ) ( <= ( + T5 145 )( + T1 107 ) ) )
(or ( <= ( + T1 11 ) T6 ) ( <= ( + T6 52 ) T1 ) )
(or ( <= ( + T1 83 )  ( + T6 52 ) ) ( <= ( + T6 151 )( + T1 11 ) ) )
(or ( <= ( + T1 107 )  ( + T6 151 ) ) ( <= ( + T6 159 )( + T1 83 ) ) )
(or ( <= ( + T1 123 )  ( + T6 159 ) ) ( <= ( + T6 232 )( + T1 107 ) ) )
(or ( <= ( + T2 52 ) T3 ) ( <= ( + T3 49 ) T2 ) )
(or ( <= ( + T2 108 )  ( + T3 49 ) ) ( <= ( + T3 144 )( + T2 52 ) ) )
(or ( <= ( + T2 128 )  ( + T3 144 ) ) ( <= ( + T3 158 )( + T2 108 ) ) )
(or ( <= ( + T2 178 )  ( + T3 158 ) ) ( <= ( + T3 180 )( + T2 128 ) ) )
(or ( <= ( + T2 52 ) T4 ) ( <= ( + T4 76 ) T2 ) )
(or ( <= ( + T2 108 )  ( + T4 76 ) ) ( <= ( + T4 118 )( + T2 52 ) ) )
(or ( <= ( + T2 128 )  ( + T4 118 ) ) ( <= ( + T4 204 )( + T2 108 ) ) )
(or ( <= ( + T2 178 )  ( + T4 204 ) ) ( <= ( + T4 258 )( + T2 128 ) ) )
(or ( <= ( + T2 52 ) T5 ) ( <= ( + T5 71 ) T2 ) )
(or ( <= ( + T2 108 )  ( + T5 71 ) ) ( <= ( + T5 118 )( + T2 52 ) ) )
(or ( <= ( + T2 128 )  ( + T5 118 ) ) ( <= ( + T5 126 )( + T2 108 ) ) )
(or ( <= ( + T2 178 )  ( + T5 126 ) ) ( <= ( + T5 145 )( + T2 128 ) ) )
(or ( <= ( + T2 52 ) T6 ) ( <= ( + T6 52 ) T2 ) )
(or ( <= ( + T2 108 )  ( + T6 52 ) ) ( <= ( + T6 151 )( + T2 52 ) ) )
(or ( <= ( + T2 128 )  ( + T6 151 ) ) ( <= ( + T6 159 )( + T2 108 ) ) )
(or ( <= ( + T2 178 )  ( + T6 159 ) ) ( <= ( + T6 232 )( + T2 128 ) ) )
(or ( <= ( + T3 49 ) T4 ) ( <= ( + T4 76 ) T3 ) )
(or ( <= ( + T3 144 )  ( + T4 76 ) ) ( <= ( + T4 118 )( + T3 49 ) ) )
(or ( <= ( + T3 158 )  ( + T4 118 ) ) ( <= ( + T4 204 )( + T3 144 ) ) )
(or ( <= ( + T3 180 )  ( + T4 204 ) ) ( <= ( + T4 258 )( + T3 158 ) ) )
(or ( <= ( + T3 49 ) T5 ) ( <= ( + T5 71 ) T3 ) )
(or ( <= ( + T3 144 )  ( + T5 71 ) ) ( <= ( + T5 118 )( + T3 49 ) ) )
(or ( <= ( + T3 158 )  ( + T5 118 ) ) ( <= ( + T5 126 )( + T3 144 ) ) )
(or ( <= ( + T3 180 )  ( + T5 126 ) ) ( <= ( + T5 145 )( + T3 158 ) ) )
(or ( <= ( + T3 49 ) T6 ) ( <= ( + T6 52 ) T3 ) )
(or ( <= ( + T3 144 )  ( + T6 52 ) ) ( <= ( + T6 151 )( + T3 49 ) ) )
(or ( <= ( + T3 158 )  ( + T6 151 ) ) ( <= ( + T6 159 )( + T3 144 ) ) )
(or ( <= ( + T3 180 )  ( + T6 159 ) ) ( <= ( + T6 232 )( + T3 158 ) ) )
(or ( <= ( + T4 76 ) T5 ) ( <= ( + T5 71 ) T4 ) )
(or ( <= ( + T4 118 )  ( + T5 71 ) ) ( <= ( + T5 118 )( + T4 76 ) ) )
(or ( <= ( + T4 204 )  ( + T5 118 ) ) ( <= ( + T5 126 )( + T4 118 ) ) )
(or ( <= ( + T4 258 )  ( + T5 126 ) ) ( <= ( + T5 145 )( + T4 204 ) ) )
(or ( <= ( + T4 76 ) T6 ) ( <= ( + T6 52 ) T4 ) )
(or ( <= ( + T4 118 )  ( + T6 52 ) ) ( <= ( + T6 151 )( + T4 76 ) ) )
(or ( <= ( + T4 204 )  ( + T6 151 ) ) ( <= ( + T6 159 )( + T4 118 ) ) )
(or ( <= ( + T4 258 )  ( + T6 159 ) ) ( <= ( + T6 232 )( + T4 204 ) ) )
(or ( <= ( + T5 71 ) T6 ) ( <= ( + T6 52 ) T5 ) )
(or ( <= ( + T5 118 )  ( + T6 52 ) ) ( <= ( + T6 151 )( + T5 71 ) ) )
(or ( <= ( + T5 126 )  ( + T6 151 ) ) ( <= ( + T6 159 )( + T5 118 ) ) )
(or ( <= ( + T5 145 )  ( + T6 159 ) ) ( <= ( + T6 232 )( + T5 126 ) ) )
( <= ( + T1 123 ) Z)
( <= ( + T2 178 ) Z)
( <= ( + T3 180 ) Z)
( <= ( + T4 258 ) Z)
( <= ( + T5 145 ) Z)
( <= ( + T6 232 ) Z)
( >= T1 0 )
( >= T2 0 )
( >= T3 0 )
( >= T4 0 )
( >= T5 0 )
( >= T6 0 )
) )
(minimize Z)
(check-sat)